172
10000
1845
20
3430
381
8539
4703
4142
1108
6706
1094
2988
4289
4307
4462
2972
1315
8325
5531
1318
4252
1071
5315
1026
4684
4241
4842
4222
3485
148
4185
1040
457
5702
176
1888
95
6999
2478
3772
1576
1461
471
4681
7028
1875
7327
5824
7710
881
8682
4276
6492
2717
2778
2852
506
349
3646
1960
5647
8252
1917
3636
4336
2383
5344
183
802
3639
2602
3508
908
374
1514
5778
8155
4611
946
1996
2820
4320
7356
2217
2673
7222
2057
1056
4686
39
7444
59
492
8040
4742
7963
6348
2179
270
619
2290
5538
1005
2284
5478
2556
2832
5314
1625
8
7148
254
1624
5289
1309
5517
9980
5503
411
4262
7943
7919
2437
4497
227
5695
1518
638
43
1675
455
1518
8300
899
3318
8083
5264
4736
4522
3294
1132
3993
5066
665
2936
5258
7772
2156
7784
1750
7294
1452
1623
7844
1294
6189
5956
2037
1021
1511
7574
3598
2816
4298
4463
7180
1828
466
2052
4656
182
1771
1397
